c "random instance"
p edges 150 2260
e 1 2
e 1 4
e 1 5
e 1 8
e 1 10
e 1 19
e 1 20
e 1 21
e 1 23
e 1 25
e 1 26
e 1 38
e 1 55
e 1 56
e 1 59
e 1 60
e 1 69
e 1 76
e 1 84
e 1 92
e 1 100
e 1 101
e 1 128
e 1 131
e 1 144
e 1 146
e 2 3
e 2 5
e 2 6
e 2 8
e 2 10
e 2 11
e 2 12
e 2 14
e 2 22
e 2 28
e 2 32
e 2 53
e 2 64
e 2 67
e 2 69
e 2 72
e 2 76
e 2 86
e 2 89
e 2 91
e 2 106
e 2 108
e 2 115
e 2 140
e 3 14
e 3 15
e 3 17
e 3 18
e 3 27
e 3 28
e 3 32
e 3 38
e 3 52
e 3 53
e 3 54
e 3 63
e 3 70
e 3 72
e 3 83
e 3 92
e 3 104
e 3 105
e 3 106
e 3 109
e 3 110
e 3 116
e 3 118
e 3 122
e 3 124
e 3 127
e 3 132
e 3 147
e 4 6
e 4 7
e 4 22
e 4 40
e 4 61
e 4 62
e 4 63
e 4 66
e 4 70
e 4 72
e 4 78
e 4 81
e 4 82
e 4 90
e 4 99
e 4 101
e 4 104
e 4 109
e 4 112
e 4 115
e 4 119
e 4 121
e 4 122
e 4 131
e 4 141
e 4 142
e 4 145
e 4 147
e 4 148
e 4 150
e 5 9
e 5 10
e 5 22
e 5 24
e 5 31
e 5 41
e 5 44
e 5 49
e 5 50
e 5 54
e 5 55
e 5 58
e 5 61
e 5 66
e 5 71
e 5 75
e 5 81
e 5 91
e 5 97
e 5 101
e 5 108
e 5 111
e 5 113
e 5 114
e 5 118
e 5 127
e 5 130
e 5 136
e 5 148
e 5 149
e 6 7
e 6 12
e 6 13
e 6 21
e 6 23
e 6 25
e 6 27
e 6 28
e 6 32
e 6 48
e 6 52
e 6 58
e 6 59
e 6 74
e 6 115
e 6 119
e 6 121
e 6 124
e 6 127
e 6 129
e 6 133
e 6 134
e 7 8
e 7 17
e 7 27
e 7 35
e 7 40
e 7 42
e 7 47
e 7 49
e 7 53
e 7 59
e 7 62
e 7 63
e 7 68
e 7 75
e 7 81
e 7 88
e 7 91
e 7 92
e 7 93
e 7 97
e 7 106
e 7 109
e 7 118
e 7 121
e 7 127
e 7 130
e 7 138
e 7 141
e 7 142
e 7 144
e 8 27
e 8 35
e 8 36
e 8 45
e 8 47
e 8 50
e 8 52
e 8 53
e 8 57
e 8 67
e 8 70
e 8 77
e 8 78
e 8 79
e 8 82
e 8 89
e 8 91
e 8 93
e 8 100
e 8 103
e 8 105
e 8 111
e 8 112
e 8 117
e 8 120
e 8 122
e 8 137
e 8 140
e 8 142
e 8 148
e 8 149
e 9 11
e 9 14
e 9 28
e 9 29
e 9 38
e 9 40
e 9 41
e 9 47
e 9 49
e 9 72
e 9 74
e 9 77
e 9 78
e 9 84
e 9 98
e 9 109
e 9 112
e 9 113
e 9 118
e 9 120
e 9 121
e 9 122
e 9 125
e 9 136
e 9 148
e 10 13
e 10 20
e 10 25
e 10 28
e 10 58
e 10 61
e 10 66
e 10 79
e 10 86
e 10 87
e 10 91
e 10 94
e 10 101
e 10 103
e 10 105
e 10 107
e 10 114
e 10 122
e 10 128
e 10 132
e 10 137
e 10 138
e 10 146
e 11 12
e 11 14
e 11 21
e 11 26
e 11 39
e 11 47
e 11 48
e 11 55
e 11 60
e 11 64
e 11 70
e 11 83
e 11 84
e 11 91
e 11 93
e 11 94
e 11 107
e 11 121
e 11 124
e 11 132
e 11 136
e 11 138
e 12 13
e 12 14
e 12 15
e 12 18
e 12 21
e 12 24
e 12 25
e 12 29
e 12 32
e 12 33
e 12 37
e 12 41
e 12 60
e 12 64
e 12 68
e 12 71
e 12 73
e 12 75
e 12 85
e 12 86
e 12 89
e 12 93
e 12 96
e 12 113
e 12 117
e 12 121
e 12 124
e 12 128
e 12 134
e 12 139
e 12 144
e 12 145
e 12 146
e 12 147
e 12 150
e 13 17
e 13 18
e 13 25
e 13 27
e 13 34
e 13 43
e 13 45
e 13 47
e 13 58
e 13 64
e 13 66
e 13 71
e 13 87
e 13 92
e 13 96
e 13 99
e 13 114
e 13 116
e 13 119
e 13 120
e 13 121
e 13 130
e 13 134
e 14 20
e 14 22
e 14 26
e 14 31
e 14 39
e 14 45
e 14 46
e 14 48
e 14 49
e 14 52
e 14 55
e 14 58
e 14 59
e 14 65
e 14 69
e 14 70
e 14 77
e 14 78
e 14 79
e 14 84
e 14 86
e 14 95
e 14 101
e 14 102
e 14 105
e 14 111
e 14 116
e 14 118
e 14 122
e 14 128
e 14 132
e 14 135
e 14 136
e 14 143
e 14 146
e 14 148
e 14 150
e 15 28
e 15 31
e 15 36
e 15 39
e 15 43
e 15 44
e 15 45
e 15 47
e 15 52
e 15 53
e 15 64
e 15 76
e 15 78
e 15 89
e 15 92
e 15 95
e 15 97
e 15 104
e 15 108
e 15 131
e 15 133
e 15 135
e 15 137
e 15 142
e 15 143
e 15 145
e 15 147
e 15 148
e 15 149
e 16 19
e 16 20
e 16 22
e 16 23
e 16 26
e 16 28
e 16 32
e 16 34
e 16 35
e 16 41
e 16 46
e 16 48
e 16 53
e 16 59
e 16 60
e 16 61
e 16 62
e 16 65
e 16 67
e 16 72
e 16 73
e 16 87
e 16 89
e 16 90
e 16 120
e 16 128
e 16 144
e 16 145
e 16 149
e 16 150
e 17 19
e 17 25
e 17 26
e 17 27
e 17 45
e 17 50
e 17 62
e 17 68
e 17 69
e 17 70
e 17 75
e 17 78
e 17 103
e 17 109
e 17 110
e 17 111
e 17 133
e 17 141
e 17 146
e 17 149
e 18 19
e 18 21
e 18 28
e 18 34
e 18 41
e 18 44
e 18 53
e 18 55
e 18 60
e 18 62
e 18 65
e 18 69
e 18 86
e 18 87
e 18 94
e 18 97
e 18 110
e 18 112
e 18 118
e 18 128
e 18 131
e 18 132
e 18 149
e 19 22
e 19 28
e 19 29
e 19 34
e 19 45
e 19 48
e 19 60
e 19 64
e 19 67
e 19 69
e 19 76
e 19 78
e 19 79
e 19 81
e 19 84
e 19 86
e 19 90
e 19 100
e 19 108
e 19 109
e 19 111
e 19 123
e 19 127
e 19 133
e 19 139
e 19 140
e 19 141
e 19 142
e 19 149
e 19 150
e 20 21
e 20 27
e 20 30
e 20 35
e 20 40
e 20 44
e 20 47
e 20 48
e 20 50
e 20 53
e 20 56
e 20 71
e 20 77
e 20 82
e 20 88
e 20 109
e 20 112
e 20 125
e 20 135
e 20 138
e 20 142
e 20 145
e 20 147
e 20 150
e 21 24
e 21 31
e 21 33
e 21 34
e 21 38
e 21 39
e 21 41
e 21 46
e 21 60
e 21 65
e 21 66
e 21 67
e 21 87
e 21 88
e 21 100
e 21 106
e 21 108
e 21 112
e 21 120
e 21 122
e 21 128
e 21 131
e 21 132
e 21 134
e 21 135
e 21 136
e 21 140
e 21 141
e 21 147
e 22 25
e 22 28
e 22 30
e 22 36
e 22 38
e 22 49
e 22 55
e 22 56
e 22 61
e 22 63
e 22 67
e 22 84
e 22 85
e 22 87
e 22 89
e 22 92
e 22 105
e 22 111
e 22 112
e 22 131
e 22 139
e 22 142
e 22 143
e 22 145
e 22 148
e 22 149
e 23 32
e 23 40
e 23 48
e 23 61
e 23 67
e 23 71
e 23 81
e 23 83
e 23 88
e 23 92
e 23 94
e 23 96
e 23 98
e 23 101
e 23 111
e 23 113
e 23 120
e 23 130
e 23 132
e 23 134
e 23 139
e 23 141
e 23 150
e 24 29
e 24 30
e 24 37
e 24 51
e 24 53
e 24 54
e 24 55
e 24 57
e 24 58
e 24 59
e 24 65
e 24 66
e 24 68
e 24 69
e 24 72
e 24 79
e 24 83
e 24 101
e 24 109
e 24 112
e 24 117
e 24 120
e 24 123
e 24 130
e 24 136
e 24 144
e 24 149
e 25 28
e 25 34
e 25 35
e 25 37
e 25 47
e 25 54
e 25 67
e 25 68
e 25 69
e 25 74
e 25 85
e 25 87
e 25 90
e 25 94
e 25 100
e 25 109
e 25 114
e 25 115
e 25 119
e 25 126
e 25 140
e 25 141
e 25 144
e 25 148
e 26 30
e 26 46
e 26 47
e 26 54
e 26 55
e 26 60
e 26 62
e 26 81
e 26 86
e 26 87
e 26 90
e 26 94
e 26 99
e 26 104
e 26 105
e 26 118
e 26 124
e 26 137
e 26 139
e 26 141
e 26 143
e 26 148
e 27 36
e 27 38
e 27 39
e 27 60
e 27 68
e 27 80
e 27 98
e 27 99
e 27 100
e 27 104
e 27 106
e 27 107
e 27 109
e 27 120
e 27 123
e 27 125
e 27 128
e 27 130
e 27 131
e 27 132
e 27 136
e 27 140
e 27 149
e 28 32
e 28 39
e 28 46
e 28 50
e 28 51
e 28 56
e 28 59
e 28 62
e 28 66
e 28 69
e 28 72
e 28 77
e 28 78
e 28 82
e 28 85
e 28 87
e 28 90
e 28 92
e 28 94
e 28 95
e 28 108
e 28 111
e 28 116
e 28 122
e 28 124
e 28 128
e 28 130
e 28 139
e 28 140
e 28 142
e 28 145
e 28 146
e 29 31
e 29 33
e 29 34
e 29 45
e 29 46
e 29 54
e 29 59
e 29 65
e 29 74
e 29 75
e 29 76
e 29 92
e 29 96
e 29 106
e 29 107
e 29 108
e 29 114
e 29 115
e 29 121
e 29 126
e 29 134
e 29 139
e 29 144
e 29 149
e 30 32
e 30 44
e 30 49
e 30 57
e 30 58
e 30 63
e 30 64
e 30 71
e 30 79
e 30 85
e 30 86
e 30 93
e 30 101
e 30 119
e 30 120
e 30 124
e 30 135
e 30 137
e 30 138
e 30 139
e 30 141
e 30 145
e 31 33
e 31 34
e 31 39
e 31 41
e 31 52
e 31 55
e 31 59
e 31 72
e 31 75
e 31 82
e 31 89
e 31 99
e 31 106
e 31 107
e 31 111
e 31 114
e 31 121
e 31 136
e 31 139
e 31 150
e 32 34
e 32 51
e 32 52
e 32 63
e 32 65
e 32 66
e 32 68
e 32 69
e 32 75
e 32 91
e 32 102
e 32 108
e 32 114
e 32 119
e 32 130
e 32 133
e 32 137
e 32 141
e 32 148
e 32 150
e 33 34
e 33 38
e 33 40
e 33 42
e 33 51
e 33 57
e 33 60
e 33 61
e 33 65
e 33 67
e 33 68
e 33 78
e 33 88
e 33 91
e 33 92
e 33 94
e 33 110
e 33 112
e 33 117
e 33 122
e 33 124
e 33 125
e 33 126
e 33 129
e 33 134
e 33 135
e 33 144
e 33 149
e 34 40
e 34 42
e 34 45
e 34 51
e 34 57
e 34 59
e 34 72
e 34 80
e 34 87
e 34 90
e 34 98
e 34 99
e 34 100
e 34 103
e 34 110
e 34 111
e 34 118
e 34 120
e 34 125
e 34 126
e 34 132
e 34 134
e 34 135
e 34 139
e 34 147
e 35 36
e 35 39
e 35 41
e 35 46
e 35 49
e 35 55
e 35 57
e 35 61
e 35 76
e 35 78
e 35 85
e 35 87
e 35 100
e 35 108
e 35 113
e 35 114
e 35 115
e 35 116
e 35 120
e 35 122
e 35 125
e 35 131
e 35 139
e 35 144
e 35 145
e 35 148
e 35 150
e 36 37
e 36 39
e 36 41
e 36 46
e 36 48
e 36 51
e 36 54
e 36 56
e 36 60
e 36 82
e 36 85
e 36 89
e 36 90
e 36 95
e 36 97
e 36 101
e 36 112
e 36 114
e 36 119
e 36 128
e 36 129
e 36 130
e 36 134
e 37 39
e 37 42
e 37 46
e 37 47
e 37 54
e 37 58
e 37 63
e 37 65
e 37 68
e 37 71
e 37 75
e 37 90
e 37 92
e 37 97
e 37 99
e 37 101
e 37 103
e 37 105
e 37 114
e 37 115
e 37 117
e 37 123
e 37 126
e 37 137
e 37 138
e 38 53
e 38 62
e 38 65
e 38 66
e 38 73
e 38 84
e 38 87
e 38 93
e 38 103
e 38 107
e 38 109
e 38 110
e 38 112
e 38 123
e 38 129
e 38 136
e 38 139
e 39 41
e 39 43
e 39 53
e 39 55
e 39 61
e 39 70
e 39 71
e 39 76
e 39 86
e 39 88
e 39 89
e 39 93
e 39 99
e 39 100
e 39 107
e 39 111
e 39 115
e 39 123
e 39 124
e 39 130
e 39 133
e 39 139
e 39 148
e 40 57
e 40 61
e 40 62
e 40 63
e 40 64
e 40 65
e 40 69
e 40 73
e 40 80
e 40 82
e 40 83
e 40 84
e 40 90
e 40 91
e 40 96
e 40 97
e 40 104
e 40 105
e 40 113
e 40 116
e 40 117
e 40 123
e 40 125
e 40 128
e 40 134
e 41 49
e 41 75
e 41 76
e 41 82
e 41 83
e 41 84
e 41 86
e 41 92
e 41 93
e 41 101
e 41 104
e 41 105
e 41 109
e 41 114
e 41 117
e 41 120
e 41 128
e 41 136
e 41 138
e 41 143
e 41 145
e 41 146
e 41 150
e 42 48
e 42 49
e 42 52
e 42 54
e 42 66
e 42 69
e 42 71
e 42 75
e 42 77
e 42 78
e 42 88
e 42 89
e 42 101
e 42 103
e 42 109
e 42 116
e 42 118
e 42 119
e 42 120
e 42 127
e 42 132
e 42 145
e 42 150
e 43 51
e 43 52
e 43 53
e 43 54
e 43 57
e 43 60
e 43 62
e 43 67
e 43 68
e 43 70
e 43 73
e 43 77
e 43 81
e 43 82
e 43 87
e 43 91
e 43 97
e 43 107
e 43 109
e 43 110
e 43 111
e 43 116
e 43 118
e 43 125
e 43 128
e 43 131
e 43 136
e 43 139
e 43 143
e 43 149
e 44 50
e 44 52
e 44 62
e 44 63
e 44 64
e 44 70
e 44 74
e 44 84
e 44 96
e 44 102
e 44 106
e 44 110
e 44 112
e 44 117
e 44 123
e 44 124
e 44 125
e 44 131
e 44 132
e 44 138
e 44 146
e 44 150
e 45 51
e 45 62
e 45 63
e 45 65
e 45 68
e 45 69
e 45 77
e 45 78
e 45 83
e 45 88
e 45 101
e 45 103
e 45 104
e 45 110
e 45 112
e 45 115
e 45 128
e 45 129
e 45 136
e 45 137
e 45 139
e 45 140
e 45 142
e 45 144
e 45 146
e 45 147
e 46 51
e 46 53
e 46 67
e 46 71
e 46 80
e 46 90
e 46 92
e 46 95
e 46 101
e 46 102
e 46 104
e 46 112
e 46 114
e 46 126
e 46 128
e 46 131
e 46 134
e 46 139
e 46 144
e 47 55
e 47 58
e 47 59
e 47 66
e 47 74
e 47 80
e 47 83
e 47 86
e 47 100
e 47 102
e 47 103
e 47 107
e 47 118
e 47 120
e 47 122
e 47 123
e 47 130
e 47 140
e 47 141
e 47 146
e 47 147
e 47 149
e 48 51
e 48 60
e 48 61
e 48 68
e 48 74
e 48 78
e 48 80
e 48 82
e 48 83
e 48 88
e 48 91
e 48 97
e 48 98
e 48 107
e 48 110
e 48 111
e 48 128
e 48 138
e 48 140
e 48 142
e 48 147
e 49 60
e 49 65
e 49 70
e 49 71
e 49 72
e 49 87
e 49 90
e 49 92
e 49 93
e 49 94
e 49 98
e 49 107
e 49 108
e 49 110
e 49 114
e 49 115
e 49 117
e 49 126
e 49 132
e 49 140
e 49 149
e 50 51
e 50 56
e 50 59
e 50 68
e 50 69
e 50 72
e 50 73
e 50 77
e 50 88
e 50 99
e 50 114
e 50 124
e 50 137
e 50 140
e 50 142
e 50 148
e 51 54
e 51 60
e 51 61
e 51 65
e 51 81
e 51 88
e 51 89
e 51 99
e 51 100
e 51 103
e 51 104
e 51 112
e 51 113
e 51 120
e 51 122
e 51 128
e 51 137
e 51 142
e 51 146
e 52 58
e 52 72
e 52 74
e 52 79
e 52 82
e 52 86
e 52 88
e 52 91
e 52 96
e 52 100
e 52 106
e 52 109
e 52 121
e 52 122
e 52 123
e 52 126
e 52 127
e 52 130
e 52 131
e 52 147
e 53 58
e 53 62
e 53 64
e 53 71
e 53 80
e 53 81
e 53 91
e 53 92
e 53 95
e 53 100
e 53 105
e 53 108
e 53 111
e 53 118
e 53 129
e 53 135
e 53 137
e 53 147
e 54 56
e 54 58
e 54 59
e 54 60
e 54 73
e 54 75
e 54 85
e 54 89
e 54 94
e 54 97
e 54 104
e 54 106
e 54 109
e 54 113
e 54 118
e 54 131
e 54 134
e 54 142
e 54 143
e 54 146
e 55 58
e 55 60
e 55 73
e 55 75
e 55 78
e 55 82
e 55 88
e 55 92
e 55 96
e 55 105
e 55 106
e 55 109
e 55 115
e 55 116
e 55 128
e 55 131
e 55 134
e 55 137
e 55 138
e 55 150
e 56 60
e 56 61
e 56 71
e 56 73
e 56 89
e 56 96
e 56 99
e 56 104
e 56 106
e 56 110
e 56 115
e 56 130
e 56 136
e 56 139
e 56 142
e 56 145
e 56 147
e 56 148
e 57 59
e 57 68
e 57 75
e 57 77
e 57 79
e 57 80
e 57 81
e 57 83
e 57 87
e 57 88
e 57 90
e 57 97
e 57 102
e 57 105
e 57 118
e 57 120
e 57 122
e 57 124
e 57 126
e 57 139
e 57 141
e 57 143
e 57 144
e 57 146
e 57 150
e 58 61
e 58 67
e 58 84
e 58 96
e 58 97
e 58 99
e 58 100
e 58 102
e 58 104
e 58 119
e 58 123
e 58 131
e 58 137
e 58 141
e 58 147
e 59 71
e 59 73
e 59 74
e 59 80
e 59 84
e 59 86
e 59 87
e 59 89
e 59 95
e 59 109
e 59 111
e 59 113
e 59 116
e 59 128
e 59 129
e 59 130
e 59 132
e 59 134
e 59 144
e 59 146
e 60 61
e 60 62
e 60 63
e 60 68
e 60 73
e 60 75
e 60 84
e 60 91
e 60 104
e 60 108
e 60 114
e 60 115
e 60 124
e 60 141
e 60 149
e 61 62
e 61 66
e 61 68
e 61 69
e 61 71
e 61 72
e 61 84
e 61 91
e 61 92
e 61 94
e 61 96
e 61 97
e 61 98
e 61 104
e 61 106
e 61 116
e 61 125
e 61 128
e 61 132
e 61 137
e 61 141
e 62 66
e 62 67
e 62 70
e 62 74
e 62 93
e 62 98
e 62 101
e 62 105
e 62 110
e 62 113
e 62 115
e 62 116
e 62 121
e 62 122
e 62 137
e 62 140
e 62 145
e 62 147
e 63 70
e 63 72
e 63 87
e 63 92
e 63 96
e 63 100
e 63 111
e 63 113
e 63 114
e 63 116
e 63 117
e 63 119
e 63 121
e 63 133
e 63 136
e 63 139
e 63 142
e 63 147
e 64 66
e 64 75
e 64 80
e 64 81
e 64 82
e 64 86
e 64 89
e 64 94
e 64 98
e 64 100
e 64 107
e 64 116
e 64 124
e 64 127
e 64 131
e 64 133
e 64 135
e 64 143
e 64 144
e 64 149
e 65 66
e 65 67
e 65 68
e 65 73
e 65 80
e 65 81
e 65 82
e 65 83
e 65 84
e 65 87
e 65 90
e 65 93
e 65 102
e 65 104
e 65 116
e 65 123
e 65 126
e 65 135
e 65 136
e 65 137
e 65 140
e 65 143
e 65 150
e 66 67
e 66 75
e 66 79
e 66 84
e 66 88
e 66 90
e 66 92
e 66 95
e 66 96
e 66 99
e 66 104
e 66 107
e 66 126
e 66 127
e 66 128
e 66 134
e 66 142
e 66 148
e 67 69
e 67 70
e 67 71
e 67 75
e 67 78
e 67 80
e 67 83
e 67 88
e 67 91
e 67 99
e 67 100
e 67 101
e 67 110
e 67 111
e 67 114
e 67 116
e 67 119
e 67 125
e 67 130
e 67 131
e 67 136
e 67 140
e 67 146
e 68 73
e 68 81
e 68 83
e 68 89
e 68 94
e 68 102
e 68 108
e 68 115
e 68 116
e 68 119
e 68 120
e 68 121
e 68 123
e 68 124
e 68 130
e 68 143
e 68 144
e 68 148
e 69 72
e 69 77
e 69 83
e 69 86
e 69 90
e 69 94
e 69 98
e 69 99
e 69 103
e 69 111
e 69 113
e 69 128
e 69 130
e 69 132
e 70 73
e 70 80
e 70 81
e 70 89
e 70 93
e 70 94
e 70 98
e 70 100
e 70 103
e 70 111
e 70 119
e 70 131
e 70 133
e 70 134
e 70 136
e 70 142
e 70 144
e 70 147
e 71 73
e 71 74
e 71 78
e 71 88
e 71 91
e 71 99
e 71 101
e 71 103
e 71 116
e 71 122
e 71 134
e 71 136
e 71 139
e 71 143
e 72 75
e 72 84
e 72 88
e 72 95
e 72 107
e 72 108
e 72 117
e 72 120
e 72 121
e 72 128
e 72 136
e 73 75
e 73 80
e 73 81
e 73 82
e 73 88
e 73 97
e 73 100
e 73 103
e 73 104
e 73 107
e 73 120
e 73 123
e 73 127
e 73 142
e 73 150
e 74 75
e 74 78
e 74 84
e 74 87
e 74 88
e 74 90
e 74 91
e 74 92
e 74 94
e 74 96
e 74 97
e 74 101
e 74 104
e 74 117
e 74 127
e 74 128
e 74 130
e 74 135
e 74 139
e 74 149
e 75 76
e 75 80
e 75 82
e 75 83
e 75 86
e 75 91
e 75 92
e 75 100
e 75 101
e 75 104
e 75 111
e 75 115
e 75 136
e 75 141
e 75 142
e 75 146
e 75 149
e 75 150
e 76 86
e 76 95
e 76 96
e 76 102
e 76 114
e 76 116
e 76 118
e 76 121
e 76 123
e 76 127
e 76 135
e 76 137
e 76 142
e 76 143
e 77 78
e 77 79
e 77 83
e 77 96
e 77 97
e 77 101
e 77 102
e 77 103
e 77 106
e 77 109
e 77 113
e 77 115
e 77 116
e 77 120
e 77 123
e 77 131
e 77 138
e 77 140
e 77 142
e 77 148
e 77 149
e 78 83
e 78 84
e 78 90
e 78 94
e 78 95
e 78 98
e 78 102
e 78 103
e 78 114
e 78 117
e 78 119
e 78 120
e 78 121
e 78 123
e 78 126
e 78 141
e 78 142
e 78 146
e 78 147
e 79 86
e 79 105
e 79 107
e 79 113
e 79 119
e 79 120
e 79 131
e 79 133
e 79 135
e 79 144
e 80 83
e 80 84
e 80 86
e 80 101
e 80 106
e 80 110
e 80 115
e 80 119
e 80 123
e 80 130
e 80 134
e 80 136
e 80 145
e 80 147
e 81 85
e 81 87
e 81 98
e 81 99
e 81 100
e 81 104
e 81 105
e 81 106
e 81 107
e 81 110
e 81 113
e 81 114
e 81 115
e 81 127
e 81 129
e 81 130
e 81 145
e 82 93
e 82 94
e 82 108
e 82 118
e 82 122
e 82 123
e 82 127
e 82 130
e 82 134
e 82 135
e 82 136
e 82 140
e 82 141
e 82 142
e 82 146
e 83 86
e 83 88
e 83 100
e 83 107
e 83 112
e 83 122
e 83 123
e 83 138
e 83 143
e 83 144
e 83 145
e 83 150
e 84 85
e 84 87
e 84 91
e 84 94
e 84 99
e 84 109
e 84 113
e 84 118
e 84 119
e 84 120
e 84 126
e 84 128
e 84 131
e 84 132
e 84 133
e 84 135
e 84 144
e 84 146
e 85 92
e 85 93
e 85 95
e 85 105
e 85 106
e 85 109
e 85 114
e 85 116
e 85 121
e 85 124
e 85 126
e 85 128
e 85 129
e 85 131
e 85 133
e 85 135
e 85 137
e 85 145
e 86 89
e 86 91
e 86 107
e 86 121
e 86 124
e 86 131
e 86 137
e 86 143
e 86 146
e 86 149
e 86 150
e 87 89
e 87 97
e 87 102
e 87 103
e 87 109
e 87 112
e 87 114
e 87 115
e 87 118
e 87 134
e 87 139
e 88 91
e 88 93
e 88 99
e 88 100
e 88 103
e 88 112
e 88 116
e 88 130
e 88 133
e 88 143
e 88 148
e 89 90
e 89 94
e 89 95
e 89 99
e 89 111
e 89 115
e 89 119
e 89 120
e 89 126
e 89 127
e 89 132
e 89 135
e 89 136
e 89 137
e 89 139
e 89 145
e 89 147
e 90 99
e 90 102
e 90 104
e 90 112
e 90 113
e 90 121
e 90 124
e 90 125
e 90 144
e 90 145
e 90 148
e 91 93
e 91 99
e 91 111
e 91 124
e 91 125
e 91 128
e 91 134
e 91 135
e 91 142
e 91 143
e 91 144
e 92 94
e 92 101
e 92 102
e 92 110
e 92 116
e 92 118
e 92 124
e 92 138
e 92 139
e 92 143
e 92 149
e 92 150
e 93 95
e 93 106
e 93 122
e 93 123
e 93 124
e 93 127
e 93 130
e 93 134
e 93 135
e 93 138
e 93 139
e 93 140
e 93 142
e 93 143
e 93 144
e 93 147
e 93 148
e 94 98
e 94 102
e 94 105
e 94 107
e 94 109
e 94 116
e 94 122
e 94 124
e 94 128
e 94 129
e 94 140
e 94 143
e 94 145
e 94 147
e 94 149
e 94 150
e 95 100
e 95 101
e 95 105
e 95 109
e 95 110
e 95 129
e 95 136
e 95 140
e 95 142
e 96 101
e 96 103
e 96 105
e 96 106
e 96 110
e 96 116
e 96 118
e 96 119
e 96 132
e 96 138
e 96 142
e 96 144
e 97 98
e 97 108
e 97 118
e 97 120
e 97 129
e 97 132
e 97 141
e 97 143
e 97 146
e 98 99
e 98 102
e 98 103
e 98 110
e 98 114
e 98 115
e 98 124
e 98 139
e 98 142
e 98 143
e 98 148
e 99 102
e 99 103
e 99 106
e 99 112
e 99 117
e 99 132
e 99 148
e 100 101
e 100 102
e 100 105
e 100 109
e 100 117
e 100 118
e 100 122
e 100 133
e 100 135
e 101 105
e 101 119
e 101 120
e 101 121
e 101 123
e 101 125
e 101 135
e 101 136
e 101 148
e 102 105
e 102 106
e 102 112
e 102 115
e 102 117
e 102 118
e 102 134
e 102 136
e 102 137
e 102 145
e 102 147
e 103 110
e 103 114
e 103 115
e 103 117
e 103 120
e 103 121
e 103 124
e 103 125
e 103 130
e 103 131
e 103 139
e 103 141
e 103 144
e 103 147
e 104 105
e 104 118
e 104 124
e 104 126
e 104 129
e 104 140
e 104 143
e 104 148
e 105 109
e 105 126
e 105 130
e 105 146
e 106 107
e 106 121
e 106 128
e 106 129
e 106 130
e 106 142
e 107 116
e 107 128
e 107 136
e 107 138
e 107 144
e 107 146
e 107 149
e 108 110
e 108 111
e 108 118
e 108 121
e 108 139
e 108 142
e 108 147
e 109 110
e 109 120
e 109 137
e 109 138
e 109 142
e 109 146
e 109 147
e 110 111
e 110 117
e 110 121
e 110 122
e 110 126
e 110 139
e 110 144
e 110 148
e 110 150
e 111 119
e 111 121
e 111 136
e 111 138
e 111 144
e 112 114
e 112 128
e 112 137
e 112 145
e 112 149
e 113 115
e 113 122
e 113 123
e 113 125
e 113 129
e 113 135
e 113 149
e 113 150
e 114 122
e 114 130
e 114 131
e 114 139
e 114 147
e 115 131
e 115 134
e 115 141
e 115 142
e 115 145
e 116 126
e 116 138
e 116 145
e 116 146
e 116 149
e 116 150
e 117 126
e 117 127
e 117 128
e 117 133
e 117 141
e 118 127
e 118 134
e 119 129
e 119 131
e 119 132
e 119 133
e 119 134
e 119 136
e 119 138
e 119 139
e 120 123
e 120 127
e 120 128
e 120 129
e 120 132
e 120 140
e 120 148
e 121 124
e 121 126
e 121 129
e 121 135
e 121 142
e 122 123
e 122 130
e 122 133
e 123 125
e 123 134
e 123 135
e 123 141
e 124 126
e 124 128
e 124 129
e 124 136
e 124 144
e 124 150
e 125 136
e 125 139
e 125 141
e 125 142
e 125 144
e 126 128
e 126 143
e 126 145
e 126 147
e 126 148
e 127 128
e 127 133
e 127 136
e 127 142
e 127 147
e 127 148
e 127 149
e 128 130
e 128 131
e 128 135
e 128 143
e 128 146
e 128 149
e 128 150
e 129 133
e 129 135
e 129 141
e 129 144
e 129 145
e 130 131
e 130 133
e 130 139
e 130 143
e 130 145
e 131 133
e 131 139
e 131 143
e 131 150
e 132 137
e 133 142
e 133 146
e 133 147
e 135 138
e 135 150
e 136 139
e 136 142
e 136 143
e 137 147
e 138 142
e 138 146
e 138 149
e 139 142
e 139 150
e 141 144
e 142 145
e 143 144
e 143 149
e 143 150
e 144 147
e 144 148
e 144 149
e 145 148
e 147 148
